50

99 12 222
98 26 441
98 23 214
97 24 456
96 10 437
90 0 332
88 12 358
86 21 358
82 17 549
82 20 563
80 5 291
79 13 293
76 5 210
76 2 508
76 3 286
74 14 319
69 0 403
67 5 489
66 16 558
64 3 345
62 7 420
59 8 558
55 17 536
52 1 512
51 15 580
51 2 286
50 8 456
49 13 511
44 5 443
43 3 345
41 10 357
41 9 218
41 9 566
41 8 322
41 4 552
37 12 404
35 3 219
33 8 472
32 5 470
32 0 293
31 10 514
31 5 266
31 8 536
30 7 310
29 6 297
23 5 365
23 3 539
22 1 236
20 4 238
20 5 591
